 $SYSTEM MWORDS=90 $END
 $CONTRL RUNTYP=ENERGY SCFTYP=RHF DFTTYP=NONE MULT=1 
         MAXIT=200 COORD=UNIQUE UNITS=BOHR 
         ISPHER=1
 $END
 $DATA
H2 
DNH 4

H 1.0 0.00000000 0.00000000  0.70000000
1S 14 2.473106 
1S 14 1.165255 
1S 14 1.054968 
2P 14 1.481937

 $END 
