 $CONTRL SCFTYP=RHF ECP=READ RUNTYP=ENERGY
         MULT=1 UNITS=ANGS
         ISPHER=1
 $END
 $SYSTEM TIMLIM=60 MWORDS=100 $END
 $GUESS  GUESS=HUCKEL $END
 $DATA
Benzene
C1
  C  6.0     -0.71308        1.20378        0.00000
s 9 1.00
1 13.073594    0.0051583
2 6.541187     0.0603424
3 4.573411    -0.1978471
4 1.637494    -0.0810340
5 0.819297     0.2321726
6 0.409924     0.2914643
7 0.231300     0.4336405
8 0.102619     0.2131940
9 0.051344     0.0049848
s 1 1.00
1 0.127852     1.000000
p 9 1.00
1 9.934169     0.0209076
2 3.886955     0.0572698
3 1.871016     0.1122682
4 0.935757     0.2130082
5 0.468003     0.2835815
6 0.239473     0.3011207
7 0.117063     0.2016934
8 0.058547     0.0453575
9 0.029281     0.0029775
p 1 1.00
1 0.149161     1.000000
d 1 1.00
1 0.561160     1.000000

  C  6.0     -0.00904       -0.01566        0.00000
s 9 1.00
1 13.073594    0.0051583
2 6.541187     0.0603424
3 4.573411    -0.1978471
4 1.637494    -0.0810340
5 0.819297     0.2321726
6 0.409924     0.2914643
7 0.231300     0.4336405
8 0.102619     0.2131940
9 0.051344     0.0049848
s 1 1.00
1 0.127852     1.000000
p 9 1.00
1 9.934169     0.0209076
2 3.886955     0.0572698
3 1.871016     0.1122682
4 0.935757     0.2130082
5 0.468003     0.2835815
6 0.239473     0.3011207
7 0.117063     0.2016934
8 0.058547     0.0453575
9 0.029281     0.0029775
p 1 1.00
1 0.149161     1.000000
d 1 1.00
1 0.561160     1.000000

  C  6.0      1.39904       -0.01566        0.00000
s 9 1.00
1 13.073594    0.0051583
2 6.541187     0.0603424
3 4.573411    -0.1978471
4 1.637494    -0.0810340
5 0.819297     0.2321726
6 0.409924     0.2914643
7 0.231300     0.4336405
8 0.102619     0.2131940
9 0.051344     0.0049848
s 1 1.00
1 0.127852     1.000000
p 9 1.00
1 9.934169     0.0209076
2 3.886955     0.0572698
3 1.871016     0.1122682
4 0.935757     0.2130082
5 0.468003     0.2835815
6 0.239473     0.3011207
7 0.117063     0.2016934
8 0.058547     0.0453575
9 0.029281     0.0029775
p 1 1.00
1 0.149161     1.000000
d 1 1.00
1 0.561160     1.000000

  C  6.0      2.10308        1.20378        0.00000
s 9 1.00
1 13.073594    0.0051583
2 6.541187     0.0603424
3 4.573411    -0.1978471
4 1.637494    -0.0810340
5 0.819297     0.2321726
6 0.409924     0.2914643
7 0.231300     0.4336405
8 0.102619     0.2131940
9 0.051344     0.0049848
s 1 1.00
1 0.127852     1.000000
p 9 1.00
1 9.934169     0.0209076
2 3.886955     0.0572698
3 1.871016     0.1122682
4 0.935757     0.2130082
5 0.468003     0.2835815
6 0.239473     0.3011207
7 0.117063     0.2016934
8 0.058547     0.0453575
9 0.029281     0.0029775
p 1 1.00
1 0.149161     1.000000
d 1 1.00
1 0.561160     1.000000

  C  6.0      1.39904        2.42321       -0.00000
s 9 1.00
1 13.073594    0.0051583
2 6.541187     0.0603424
3 4.573411    -0.1978471
4 1.637494    -0.0810340
5 0.819297     0.2321726
6 0.409924     0.2914643
7 0.231300     0.4336405
8 0.102619     0.2131940
9 0.051344     0.0049848
s 1 1.00
1 0.127852     1.000000
p 9 1.00
1 9.934169     0.0209076
2 3.886955     0.0572698
3 1.871016     0.1122682
4 0.935757     0.2130082
5 0.468003     0.2835815
6 0.239473     0.3011207
7 0.117063     0.2016934
8 0.058547     0.0453575
9 0.029281     0.0029775
p 1 1.00
1 0.149161     1.000000
d 1 1.00
1 0.561160     1.000000

  C  6.0     -0.00904        2.42321       -0.00000
s 9 1.00
1 13.073594    0.0051583
2 6.541187     0.0603424
3 4.573411    -0.1978471
4 1.637494    -0.0810340
5 0.819297     0.2321726
6 0.409924     0.2914643
7 0.231300     0.4336405
8 0.102619     0.2131940
9 0.051344     0.0049848
s 1 1.00
1 0.127852     1.000000
p 9 1.00
1 9.934169     0.0209076
2 3.886955     0.0572698
3 1.871016     0.1122682
4 0.935757     0.2130082
5 0.468003     0.2835815
6 0.239473     0.3011207
7 0.117063     0.2016934
8 0.058547     0.0453575
9 0.029281     0.0029775
p 1 1.00
1 0.149161     1.000000
d 1 1.00
1 0.561160     1.000000

  H  1.0     -1.73551        1.20378       -0.00000
s 8 1.00
1 23.843185  0.00411490
2 10.212443  0.01046440
3 4.374164  0.02801110
4 1.873529  0.07588620
5 0.802465  0.18210620
6 0.343709  0.34852140
7 0.147217  0.37823130
8 0.063055  0.11642410
s 1 1.00
1 0.139013  1.00000000
p 1 1.00
1 0.740212  1.00000000

  H  1.0     -0.52025       -0.90111       -0.00000
s 8 1.00
1 23.843185  0.00411490
2 10.212443  0.01046440
3 4.374164  0.02801110
4 1.873529  0.07588620
5 0.802465  0.18210620
6 0.343709  0.34852140
7 0.147217  0.37823130
8 0.063055  0.11642410
s 1 1.00
1 0.139013  1.00000000
p 1 1.00
1 0.740212  1.00000000

  H  1.0      1.91025       -0.90111       -0.00000
s 8 1.00
1 23.843185  0.00411490
2 10.212443  0.01046440
3 4.374164  0.02801110
4 1.873529  0.07588620
5 0.802465  0.18210620
6 0.343709  0.34852140
7 0.147217  0.37823130
8 0.063055  0.11642410
s 1 1.00
1 0.139013  1.00000000
p 1 1.00
1 0.740212  1.00000000

  H  1.0      3.12551        1.20378       -0.00000
s 8 1.00
1 23.843185  0.00411490
2 10.212443  0.01046440
3 4.374164  0.02801110
4 1.873529  0.07588620
5 0.802465  0.18210620
6 0.343709  0.34852140
7 0.147217  0.37823130
8 0.063055  0.11642410
s 1 1.00
1 0.139013  1.00000000
p 1 1.00
1 0.740212  1.00000000

  H  1.0      1.91025        3.30866        0.00000
s 8 1.00
1 23.843185  0.00411490
2 10.212443  0.01046440
3 4.374164  0.02801110
4 1.873529  0.07588620
5 0.802465  0.18210620
6 0.343709  0.34852140
7 0.147217  0.37823130
8 0.063055  0.11642410
s 1 1.00
1 0.139013  1.00000000
p 1 1.00
1 0.740212  1.00000000

  H  1.0     -0.52025        3.30866        0.00000
s 8 1.00
1 23.843185  0.00411490
2 10.212443  0.01046440
3 4.374164  0.02801110
4 1.873529  0.07588620
5 0.802465  0.18210620
6 0.343709  0.34852140
7 0.147217  0.37823130
8 0.063055  0.11642410
s 1 1.00
1 0.139013  1.00000000
p 1 1.00
1 0.740212  1.00000000

 $END
 $ECP
C-ECP       GEN 2 1
3
  4.00000 1 14.43502
 57.74008 3  8.39889
-25.81955 2  7.38188
1
 52.13345 2  7.76079
C-ECP
C-ECP
C-ECP
C-ECP
C-ECP
H-ECP  GEN 0 0
3
  1.00000000000000 1 21.24359508259891
 21.24359508259891 3 21.24359508259891
-10.85192405303825 2 21.77696655044365
H-ECP
H-ECP
H-ECP
H-ECP
H-ECP
$END
